2239.0 32978.0 
2237.0 33161.0 
2197.0 33935.0 
2270.0 32904.0 
2401.0 32588.0 
2349.0 32675.0 
2203.0 33396.0 
2326.0 32793.0 
2270.0 32904.0 
2215.0 33187.0 
2239.0 32978.0 
2183.0 33997.0 
2215.0 33187.0 
2323.0 32797.0 
2382.0 32607.0 
